c created by edge2cnf
p cnf 500 3100
-1 -2 0
-1 -3 0
-1 -4 0
-1 -5 0
-2 -3 0
-2 -4 0
-2 -5 0
-3 -4 0
-3 -5 0
-4 -5 0
1 2 3 4 5 0
-6 -7 0
-6 -8 0
-6 -9 0
-6 -10 0
-7 -8 0
-7 -9 0
-7 -10 0
-8 -9 0
-8 -10 0
-9 -10 0
6 7 8 9 10 0
-11 -12 0
-11 -13 0
-11 -14 0
-11 -15 0
-12 -13 0
-12 -14 0
-12 -15 0
-13 -14 0
-13 -15 0
-14 -15 0
11 12 13 14 15 0
-16 -17 0
-16 -18 0
-16 -19 0
-16 -20 0
-17 -18 0
-17 -19 0
-17 -20 0
-18 -19 0
-18 -20 0
-19 -20 0
16 17 18 19 20 0
-21 -22 0
-21 -23 0
-21 -24 0
-21 -25 0
-22 -23 0
-22 -24 0
-22 -25 0
-23 -24 0
-23 -25 0
-24 -25 0
21 22 23 24 25 0
-26 -27 0
-26 -28 0
-26 -29 0
-26 -30 0
-27 -28 0
-27 -29 0
-27 -30 0
-28 -29 0
-28 -30 0
-29 -30 0
26 27 28 29 30 0
-31 -32 0
-31 -33 0
-31 -34 0
-31 -35 0
-32 -33 0
-32 -34 0
-32 -35 0
-33 -34 0
-33 -35 0
-34 -35 0
31 32 33 34 35 0
-36 -37 0
-36 -38 0
-36 -39 0
-36 -40 0
-37 -38 0
-37 -39 0
-37 -40 0
-38 -39 0
-38 -40 0
-39 -40 0
36 37 38 39 40 0
-41 -42 0
-41 -43 0
-41 -44 0
-41 -45 0
-42 -43 0
-42 -44 0
-42 -45 0
-43 -44 0
-43 -45 0
-44 -45 0
41 42 43 44 45 0
-46 -47 0
-46 -48 0
-46 -49 0
-46 -50 0
-47 -48 0
-47 -49 0
-47 -50 0
-48 -49 0
-48 -50 0
-49 -50 0
46 47 48 49 50 0
-51 -52 0
-51 -53 0
-51 -54 0
-51 -55 0
-52 -53 0
-52 -54 0
-52 -55 0
-53 -54 0
-53 -55 0
-54 -55 0
51 52 53 54 55 0
-56 -57 0
-56 -58 0
-56 -59 0
-56 -60 0
-57 -58 0
-57 -59 0
-57 -60 0
-58 -59 0
-58 -60 0
-59 -60 0
56 57 58 59 60 0
-61 -62 0
-61 -63 0
-61 -64 0
-61 -65 0
-62 -63 0
-62 -64 0
-62 -65 0
-63 -64 0
-63 -65 0
-64 -65 0
61 62 63 64 65 0
-66 -67 0
-66 -68 0
-66 -69 0
-66 -70 0
-67 -68 0
-67 -69 0
-67 -70 0
-68 -69 0
-68 -70 0
-69 -70 0
66 67 68 69 70 0
-71 -72 0
-71 -73 0
-71 -74 0
-71 -75 0
-72 -73 0
-72 -74 0
-72 -75 0
-73 -74 0
-73 -75 0
-74 -75 0
71 72 73 74 75 0
-76 -77 0
-76 -78 0
-76 -79 0
-76 -80 0
-77 -78 0
-77 -79 0
-77 -80 0
-78 -79 0
-78 -80 0
-79 -80 0
76 77 78 79 80 0
-81 -82 0
-81 -83 0
-81 -84 0
-81 -85 0
-82 -83 0
-82 -84 0
-82 -85 0
-83 -84 0
-83 -85 0
-84 -85 0
81 82 83 84 85 0
-86 -87 0
-86 -88 0
-86 -89 0
-86 -90 0
-87 -88 0
-87 -89 0
-87 -90 0
-88 -89 0
-88 -90 0
-89 -90 0
86 87 88 89 90 0
-91 -92 0
-91 -93 0
-91 -94 0
-91 -95 0
-92 -93 0
-92 -94 0
-92 -95 0
-93 -94 0
-93 -95 0
-94 -95 0
91 92 93 94 95 0
-96 -97 0
-96 -98 0
-96 -99 0
-96 -100 0
-97 -98 0
-97 -99 0
-97 -100 0
-98 -99 0
-98 -100 0
-99 -100 0
96 97 98 99 100 0
-101 -102 0
-101 -103 0
-101 -104 0
-101 -105 0
-102 -103 0
-102 -104 0
-102 -105 0
-103 -104 0
-103 -105 0
-104 -105 0
101 102 103 104 105 0
-106 -107 0
-106 -108 0
-106 -109 0
-106 -110 0
-107 -108 0
-107 -109 0
-107 -110 0
-108 -109 0
-108 -110 0
-109 -110 0
106 107 108 109 110 0
-111 -112 0
-111 -113 0
-111 -114 0
-111 -115 0
-112 -113 0
-112 -114 0
-112 -115 0
-113 -114 0
-113 -115 0
-114 -115 0
111 112 113 114 115 0
-116 -117 0
-116 -118 0
-116 -119 0
-116 -120 0
-117 -118 0
-117 -119 0
-117 -120 0
-118 -119 0
-118 -120 0
-119 -120 0
116 117 118 119 120 0
-121 -122 0
-121 -123 0
-121 -124 0
-121 -125 0
-122 -123 0
-122 -124 0
-122 -125 0
-123 -124 0
-123 -125 0
-124 -125 0
121 122 123 124 125 0
-126 -127 0
-126 -128 0
-126 -129 0
-126 -130 0
-127 -128 0
-127 -129 0
-127 -130 0
-128 -129 0
-128 -130 0
-129 -130 0
126 127 128 129 130 0
-131 -132 0
-131 -133 0
-131 -134 0
-131 -135 0
-132 -133 0
-132 -134 0
-132 -135 0
-133 -134 0
-133 -135 0
-134 -135 0
131 132 133 134 135 0
-136 -137 0
-136 -138 0
-136 -139 0
-136 -140 0
-137 -138 0
-137 -139 0
-137 -140 0
-138 -139 0
-138 -140 0
-139 -140 0
136 137 138 139 140 0
-141 -142 0
-141 -143 0
-141 -144 0
-141 -145 0
-142 -143 0
-142 -144 0
-142 -145 0
-143 -144 0
-143 -145 0
-144 -145 0
141 142 143 144 145 0
-146 -147 0
-146 -148 0
-146 -149 0
-146 -150 0
-147 -148 0
-147 -149 0
-147 -150 0
-148 -149 0
-148 -150 0
-149 -150 0
146 147 148 149 150 0
-151 -152 0
-151 -153 0
-151 -154 0
-151 -155 0
-152 -153 0
-152 -154 0
-152 -155 0
-153 -154 0
-153 -155 0
-154 -155 0
151 152 153 154 155 0
-156 -157 0
-156 -158 0
-156 -159 0
-156 -160 0
-157 -158 0
-157 -159 0
-157 -160 0
-158 -159 0
-158 -160 0
-159 -160 0
156 157 158 159 160 0
-161 -162 0
-161 -163 0
-161 -164 0
-161 -165 0
-162 -163 0
-162 -164 0
-162 -165 0
-163 -164 0
-163 -165 0
-164 -165 0
161 162 163 164 165 0
-166 -167 0
-166 -168 0
-166 -169 0
-166 -170 0
-167 -168 0
-167 -169 0
-167 -170 0
-168 -169 0
-168 -170 0
-169 -170 0
166 167 168 169 170 0
-171 -172 0
-171 -173 0
-171 -174 0
-171 -175 0
-172 -173 0
-172 -174 0
-172 -175 0
-173 -174 0
-173 -175 0
-174 -175 0
171 172 173 174 175 0
-176 -177 0
-176 -178 0
-176 -179 0
-176 -180 0
-177 -178 0
-177 -179 0
-177 -180 0
-178 -179 0
-178 -180 0
-179 -180 0
176 177 178 179 180 0
-181 -182 0
-181 -183 0
-181 -184 0
-181 -185 0
-182 -183 0
-182 -184 0
-182 -185 0
-183 -184 0
-183 -185 0
-184 -185 0
181 182 183 184 185 0
-186 -187 0
-186 -188 0
-186 -189 0
-186 -190 0
-187 -188 0
-187 -189 0
-187 -190 0
-188 -189 0
-188 -190 0
-189 -190 0
186 187 188 189 190 0
-191 -192 0
-191 -193 0
-191 -194 0
-191 -195 0
-192 -193 0
-192 -194 0
-192 -195 0
-193 -194 0
-193 -195 0
-194 -195 0
191 192 193 194 195 0
-196 -197 0
-196 -198 0
-196 -199 0
-196 -200 0
-197 -198 0
-197 -199 0
-197 -200 0
-198 -199 0
-198 -200 0
-199 -200 0
196 197 198 199 200 0
-201 -202 0
-201 -203 0
-201 -204 0
-201 -205 0
-202 -203 0
-202 -204 0
-202 -205 0
-203 -204 0
-203 -205 0
-204 -205 0
201 202 203 204 205 0
-206 -207 0
-206 -208 0
-206 -209 0
-206 -210 0
-207 -208 0
-207 -209 0
-207 -210 0
-208 -209 0
-208 -210 0
-209 -210 0
206 207 208 209 210 0
-211 -212 0
-211 -213 0
-211 -214 0
-211 -215 0
-212 -213 0
-212 -214 0
-212 -215 0
-213 -214 0
-213 -215 0
-214 -215 0
211 212 213 214 215 0
-216 -217 0
-216 -218 0
-216 -219 0
-216 -220 0
-217 -218 0
-217 -219 0
-217 -220 0
-218 -219 0
-218 -220 0
-219 -220 0
216 217 218 219 220 0
-221 -222 0
-221 -223 0
-221 -224 0
-221 -225 0
-222 -223 0
-222 -224 0
-222 -225 0
-223 -224 0
-223 -225 0
-224 -225 0
221 222 223 224 225 0
-226 -227 0
-226 -228 0
-226 -229 0
-226 -230 0
-227 -228 0
-227 -229 0
-227 -230 0
-228 -229 0
-228 -230 0
-229 -230 0
226 227 228 229 230 0
-231 -232 0
-231 -233 0
-231 -234 0
-231 -235 0
-232 -233 0
-232 -234 0
-232 -235 0
-233 -234 0
-233 -235 0
-234 -235 0
231 232 233 234 235 0
-236 -237 0
-236 -238 0
-236 -239 0
-236 -240 0
-237 -238 0
-237 -239 0
-237 -240 0
-238 -239 0
-238 -240 0
-239 -240 0
236 237 238 239 240 0
-241 -242 0
-241 -243 0
-241 -244 0
-241 -245 0
-242 -243 0
-242 -244 0
-242 -245 0
-243 -244 0
-243 -245 0
-244 -245 0
241 242 243 244 245 0
-246 -247 0
-246 -248 0
-246 -249 0
-246 -250 0
-247 -248 0
-247 -249 0
-247 -250 0
-248 -249 0
-248 -250 0
-249 -250 0
246 247 248 249 250 0
-251 -252 0
-251 -253 0
-251 -254 0
-251 -255 0
-252 -253 0
-252 -254 0
-252 -255 0
-253 -254 0
-253 -255 0
-254 -255 0
251 252 253 254 255 0
-256 -257 0
-256 -258 0
-256 -259 0
-256 -260 0
-257 -258 0
-257 -259 0
-257 -260 0
-258 -259 0
-258 -260 0
-259 -260 0
256 257 258 259 260 0
-261 -262 0
-261 -263 0
-261 -264 0
-261 -265 0
-262 -263 0
-262 -264 0
-262 -265 0
-263 -264 0
-263 -265 0
-264 -265 0
261 262 263 264 265 0
-266 -267 0
-266 -268 0
-266 -269 0
-266 -270 0
-267 -268 0
-267 -269 0
-267 -270 0
-268 -269 0
-268 -270 0
-269 -270 0
266 267 268 269 270 0
-271 -272 0
-271 -273 0
-271 -274 0
-271 -275 0
-272 -273 0
-272 -274 0
-272 -275 0
-273 -274 0
-273 -275 0
-274 -275 0
271 272 273 274 275 0
-276 -277 0
-276 -278 0
-276 -279 0
-276 -280 0
-277 -278 0
-277 -279 0
-277 -280 0
-278 -279 0
-278 -280 0
-279 -280 0
276 277 278 279 280 0
-281 -282 0
-281 -283 0
-281 -284 0
-281 -285 0
-282 -283 0
-282 -284 0
-282 -285 0
-283 -284 0
-283 -285 0
-284 -285 0
281 282 283 284 285 0
-286 -287 0
-286 -288 0
-286 -289 0
-286 -290 0
-287 -288 0
-287 -289 0
-287 -290 0
-288 -289 0
-288 -290 0
-289 -290 0
286 287 288 289 290 0
-291 -292 0
-291 -293 0
-291 -294 0
-291 -295 0
-292 -293 0
-292 -294 0
-292 -295 0
-293 -294 0
-293 -295 0
-294 -295 0
291 292 293 294 295 0
-296 -297 0
-296 -298 0
-296 -299 0
-296 -300 0
-297 -298 0
-297 -299 0
-297 -300 0
-298 -299 0
-298 -300 0
-299 -300 0
296 297 298 299 300 0
-301 -302 0
-301 -303 0
-301 -304 0
-301 -305 0
-302 -303 0
-302 -304 0
-302 -305 0
-303 -304 0
-303 -305 0
-304 -305 0
301 302 303 304 305 0
-306 -307 0
-306 -308 0
-306 -309 0
-306 -310 0
-307 -308 0
-307 -309 0
-307 -310 0
-308 -309 0
-308 -310 0
-309 -310 0
306 307 308 309 310 0
-311 -312 0
-311 -313 0
-311 -314 0
-311 -315 0
-312 -313 0
-312 -314 0
-312 -315 0
-313 -314 0
-313 -315 0
-314 -315 0
311 312 313 314 315 0
-316 -317 0
-316 -318 0
-316 -319 0
-316 -320 0
-317 -318 0
-317 -319 0
-317 -320 0
-318 -319 0
-318 -320 0
-319 -320 0
316 317 318 319 320 0
-321 -322 0
-321 -323 0
-321 -324 0
-321 -325 0
-322 -323 0
-322 -324 0
-322 -325 0
-323 -324 0
-323 -325 0
-324 -325 0
321 322 323 324 325 0
-326 -327 0
-326 -328 0
-326 -329 0
-326 -330 0
-327 -328 0
-327 -329 0
-327 -330 0
-328 -329 0
-328 -330 0
-329 -330 0
326 327 328 329 330 0
-331 -332 0
-331 -333 0
-331 -334 0
-331 -335 0
-332 -333 0
-332 -334 0
-332 -335 0
-333 -334 0
-333 -335 0
-334 -335 0
331 332 333 334 335 0
-336 -337 0
-336 -338 0
-336 -339 0
-336 -340 0
-337 -338 0
-337 -339 0
-337 -340 0
-338 -339 0
-338 -340 0
-339 -340 0
336 337 338 339 340 0
-341 -342 0
-341 -343 0
-341 -344 0
-341 -345 0
-342 -343 0
-342 -344 0
-342 -345 0
-343 -344 0
-343 -345 0
-344 -345 0
341 342 343 344 345 0
-346 -347 0
-346 -348 0
-346 -349 0
-346 -350 0
-347 -348 0
-347 -349 0
-347 -350 0
-348 -349 0
-348 -350 0
-349 -350 0
346 347 348 349 350 0
-351 -352 0
-351 -353 0
-351 -354 0
-351 -355 0
-352 -353 0
-352 -354 0
-352 -355 0
-353 -354 0
-353 -355 0
-354 -355 0
351 352 353 354 355 0
-356 -357 0
-356 -358 0
-356 -359 0
-356 -360 0
-357 -358 0
-357 -359 0
-357 -360 0
-358 -359 0
-358 -360 0
-359 -360 0
356 357 358 359 360 0
-361 -362 0
-361 -363 0
-361 -364 0
-361 -365 0
-362 -363 0
-362 -364 0
-362 -365 0
-363 -364 0
-363 -365 0
-364 -365 0
361 362 363 364 365 0
-366 -367 0
-366 -368 0
-366 -369 0
-366 -370 0
-367 -368 0
-367 -369 0
-367 -370 0
-368 -369 0
-368 -370 0
-369 -370 0
366 367 368 369 370 0
-371 -372 0
-371 -373 0
-371 -374 0
-371 -375 0
-372 -373 0
-372 -374 0
-372 -375 0
-373 -374 0
-373 -375 0
-374 -375 0
371 372 373 374 375 0
-376 -377 0
-376 -378 0
-376 -379 0
-376 -380 0
-377 -378 0
-377 -379 0
-377 -380 0
-378 -379 0
-378 -380 0
-379 -380 0
376 377 378 379 380 0
-381 -382 0
-381 -383 0
-381 -384 0
-381 -385 0
-382 -383 0
-382 -384 0
-382 -385 0
-383 -384 0
-383 -385 0
-384 -385 0
381 382 383 384 385 0
-386 -387 0
-386 -388 0
-386 -389 0
-386 -390 0
-387 -388 0
-387 -389 0
-387 -390 0
-388 -389 0
-388 -390 0
-389 -390 0
386 387 388 389 390 0
-391 -392 0
-391 -393 0
-391 -394 0
-391 -395 0
-392 -393 0
-392 -394 0
-392 -395 0
-393 -394 0
-393 -395 0
-394 -395 0
391 392 393 394 395 0
-396 -397 0
-396 -398 0
-396 -399 0
-396 -400 0
-397 -398 0
-397 -399 0
-397 -400 0
-398 -399 0
-398 -400 0
-399 -400 0
396 397 398 399 400 0
-401 -402 0
-401 -403 0
-401 -404 0
-401 -405 0
-402 -403 0
-402 -404 0
-402 -405 0
-403 -404 0
-403 -405 0
-404 -405 0
401 402 403 404 405 0
-406 -407 0
-406 -408 0
-406 -409 0
-406 -410 0
-407 -408 0
-407 -409 0
-407 -410 0
-408 -409 0
-408 -410 0
-409 -410 0
406 407 408 409 410 0
-411 -412 0
-411 -413 0
-411 -414 0
-411 -415 0
-412 -413 0
-412 -414 0
-412 -415 0
-413 -414 0
-413 -415 0
-414 -415 0
411 412 413 414 415 0
-416 -417 0
-416 -418 0
-416 -419 0
-416 -420 0
-417 -418 0
-417 -419 0
-417 -420 0
-418 -419 0
-418 -420 0
-419 -420 0
416 417 418 419 420 0
-421 -422 0
-421 -423 0
-421 -424 0
-421 -425 0
-422 -423 0
-422 -424 0
-422 -425 0
-423 -424 0
-423 -425 0
-424 -425 0
421 422 423 424 425 0
-426 -427 0
-426 -428 0
-426 -429 0
-426 -430 0
-427 -428 0
-427 -429 0
-427 -430 0
-428 -429 0
-428 -430 0
-429 -430 0
426 427 428 429 430 0
-431 -432 0
-431 -433 0
-431 -434 0
-431 -435 0
-432 -433 0
-432 -434 0
-432 -435 0
-433 -434 0
-433 -435 0
-434 -435 0
431 432 433 434 435 0
-436 -437 0
-436 -438 0
-436 -439 0
-436 -440 0
-437 -438 0
-437 -439 0
-437 -440 0
-438 -439 0
-438 -440 0
-439 -440 0
436 437 438 439 440 0
-441 -442 0
-441 -443 0
-441 -444 0
-441 -445 0
-442 -443 0
-442 -444 0
-442 -445 0
-443 -444 0
-443 -445 0
-444 -445 0
441 442 443 444 445 0
-446 -447 0
-446 -448 0
-446 -449 0
-446 -450 0
-447 -448 0
-447 -449 0
-447 -450 0
-448 -449 0
-448 -450 0
-449 -450 0
446 447 448 449 450 0
-451 -452 0
-451 -453 0
-451 -454 0
-451 -455 0
-452 -453 0
-452 -454 0
-452 -455 0
-453 -454 0
-453 -455 0
-454 -455 0
451 452 453 454 455 0
-456 -457 0
-456 -458 0
-456 -459 0
-456 -460 0
-457 -458 0
-457 -459 0
-457 -460 0
-458 -459 0
-458 -460 0
-459 -460 0
456 457 458 459 460 0
-461 -462 0
-461 -463 0
-461 -464 0
-461 -465 0
-462 -463 0
-462 -464 0
-462 -465 0
-463 -464 0
-463 -465 0
-464 -465 0
461 462 463 464 465 0
-466 -467 0
-466 -468 0
-466 -469 0
-466 -470 0
-467 -468 0
-467 -469 0
-467 -470 0
-468 -469 0
-468 -470 0
-469 -470 0
466 467 468 469 470 0
-471 -472 0
-471 -473 0
-471 -474 0
-471 -475 0
-472 -473 0
-472 -474 0
-472 -475 0
-473 -474 0
-473 -475 0
-474 -475 0
471 472 473 474 475 0
-476 -477 0
-476 -478 0
-476 -479 0
-476 -480 0
-477 -478 0
-477 -479 0
-477 -480 0
-478 -479 0
-478 -480 0
-479 -480 0
476 477 478 479 480 0
-481 -482 0
-481 -483 0
-481 -484 0
-481 -485 0
-482 -483 0
-482 -484 0
-482 -485 0
-483 -484 0
-483 -485 0
-484 -485 0
481 482 483 484 485 0
-486 -487 0
-486 -488 0
-486 -489 0
-486 -490 0
-487 -488 0
-487 -489 0
-487 -490 0
-488 -489 0
-488 -490 0
-489 -490 0
486 487 488 489 490 0
-491 -492 0
-491 -493 0
-491 -494 0
-491 -495 0
-492 -493 0
-492 -494 0
-492 -495 0
-493 -494 0
-493 -495 0
-494 -495 0
491 492 493 494 495 0
-496 -497 0
-496 -498 0
-496 -499 0
-496 -500 0
-497 -498 0
-497 -499 0
-497 -500 0
-498 -499 0
-498 -500 0
-499 -500 0
496 497 498 499 500 0
-36 -56 0
-37 -57 0
-38 -58 0
-39 -59 0
-40 -60 0
-86 -91 0
-87 -92 0
-88 -93 0
-89 -94 0
-90 -95 0
-101 -121 0
-102 -122 0
-103 -123 0
-104 -124 0
-105 -125 0
-111 -131 0
-112 -132 0
-113 -133 0
-114 -134 0
-115 -135 0
-121 -131 0
-122 -132 0
-123 -133 0
-124 -134 0
-125 -135 0
-121 -136 0
-122 -137 0
-123 -138 0
-124 -139 0
-125 -140 0
-126 -136 0
-127 -137 0
-128 -138 0
-129 -139 0
-130 -140 0
-126 -146 0
-127 -147 0
-128 -148 0
-129 -149 0
-130 -150 0
-151 -166 0
-152 -167 0
-153 -168 0
-154 -169 0
-155 -170 0
-166 -171 0
-167 -172 0
-168 -173 0
-169 -174 0
-170 -175 0
-166 -176 0
-167 -177 0
-168 -178 0
-169 -179 0
-170 -180 0
-166 -181 0
-167 -182 0
-168 -183 0
-169 -184 0
-170 -185 0
-181 -201 0
-182 -202 0
-183 -203 0
-184 -204 0
-185 -205 0
-186 -206 0
-187 -207 0
-188 -208 0
-189 -209 0
-190 -210 0
-246 -251 0
-247 -252 0
-248 -253 0
-249 -254 0
-250 -255 0
-256 -266 0
-257 -267 0
-258 -268 0
-259 -269 0
-260 -270 0
-301 -306 0
-302 -307 0
-303 -308 0
-304 -309 0
-305 -310 0
-306 -321 0
-307 -322 0
-308 -323 0
-309 -324 0
-310 -325 0
-316 -321 0
-317 -322 0
-318 -323 0
-319 -324 0
-320 -325 0
-321 -341 0
-322 -342 0
-323 -343 0
-324 -344 0
-325 -345 0
-326 -346 0
-327 -347 0
-328 -348 0
-329 -349 0
-330 -350 0
-376 -391 0
-377 -392 0
-378 -393 0
-379 -394 0
-380 -395 0
-376 -396 0
-377 -397 0
-378 -398 0
-379 -399 0
-380 -400 0
-381 -396 0
-382 -397 0
-383 -398 0
-384 -399 0
-385 -400 0
-386 -391 0
-387 -392 0
-388 -393 0
-389 -394 0
-390 -395 0
-396 -401 0
-397 -402 0
-398 -403 0
-399 -404 0
-400 -405 0
-401 -421 0
-402 -422 0
-403 -423 0
-404 -424 0
-405 -425 0
-416 -421 0
-417 -422 0
-418 -423 0
-419 -424 0
-420 -425 0
-416 -436 0
-417 -437 0
-418 -438 0
-419 -439 0
-420 -440 0
-431 -451 0
-432 -452 0
-433 -453 0
-434 -454 0
-435 -455 0
-481 -486 0
-482 -487 0
-483 -488 0
-484 -489 0
-485 -490 0
-1 -136 0
-2 -137 0
-3 -138 0
-4 -139 0
-5 -140 0
-1 -156 0
-2 -157 0
-3 -158 0
-4 -159 0
-5 -160 0
-1 -161 0
-2 -162 0
-3 -163 0
-4 -164 0
-5 -165 0
-1 -276 0
-2 -277 0
-3 -278 0
-4 -279 0
-5 -280 0
-1 -336 0
-2 -337 0
-3 -338 0
-4 -339 0
-5 -340 0
-1 -346 0
-2 -347 0
-3 -348 0
-4 -349 0
-5 -350 0
-1 -386 0
-2 -387 0
-3 -388 0
-4 -389 0
-5 -390 0
-1 -391 0
-2 -392 0
-3 -393 0
-4 -394 0
-5 -395 0
-6 -156 0
-7 -157 0
-8 -158 0
-9 -159 0
-10 -160 0
-6 -281 0
-7 -282 0
-8 -283 0
-9 -284 0
-10 -285 0
-6 -346 0
-7 -347 0
-8 -348 0
-9 -349 0
-10 -350 0
-6 -361 0
-7 -362 0
-8 -363 0
-9 -364 0
-10 -365 0
-11 -131 0
-12 -132 0
-13 -133 0
-14 -134 0
-15 -135 0
-11 -221 0
-12 -222 0
-13 -223 0
-14 -224 0
-15 -225 0
-11 -266 0
-12 -267 0
-13 -268 0
-14 -269 0
-15 -270 0
-11 -406 0
-12 -407 0
-13 -408 0
-14 -409 0
-15 -410 0
-11 -466 0
-12 -467 0
-13 -468 0
-14 -469 0
-15 -470 0
-11 -476 0
-12 -477 0
-13 -478 0
-14 -479 0
-15 -480 0
-11 -481 0
-12 -482 0
-13 -483 0
-14 -484 0
-15 -485 0
-16 -46 0
-17 -47 0
-18 -48 0
-19 -49 0
-20 -50 0
-16 -66 0
-17 -67 0
-18 -68 0
-19 -69 0
-20 -70 0
-16 -131 0
-17 -132 0
-18 -133 0
-19 -134 0
-20 -135 0
-16 -161 0
-17 -162 0
-18 -163 0
-19 -164 0
-20 -165 0
-16 -191 0
-17 -192 0
-18 -193 0
-19 -194 0
-20 -195 0
-16 -251 0
-17 -252 0
-18 -253 0
-19 -254 0
-20 -255 0
-16 -256 0
-17 -257 0
-18 -258 0
-19 -259 0
-20 -260 0
-16 -281 0
-17 -282 0
-18 -283 0
-19 -284 0
-20 -285 0
-16 -321 0
-17 -322 0
-18 -323 0
-19 -324 0
-20 -325 0
-16 -401 0
-17 -402 0
-18 -403 0
-19 -404 0
-20 -405 0
-16 -441 0
-17 -442 0
-18 -443 0
-19 -444 0
-20 -445 0
-16 -491 0
-17 -492 0
-18 -493 0
-19 -494 0
-20 -495 0
-21 -126 0
-22 -127 0
-23 -128 0
-24 -129 0
-25 -130 0
-21 -136 0
-22 -137 0
-23 -138 0
-24 -139 0
-25 -140 0
-21 -186 0
-22 -187 0
-23 -188 0
-24 -189 0
-25 -190 0
-21 -196 0
-22 -197 0
-23 -198 0
-24 -199 0
-25 -200 0
-21 -406 0
-22 -407 0
-23 -408 0
-24 -409 0
-25 -410 0
-21 -461 0
-22 -462 0
-23 -463 0
-24 -464 0
-25 -465 0
-21 -486 0
-22 -487 0
-23 -488 0
-24 -489 0
-25 -490 0
-26 -96 0
-27 -97 0
-28 -98 0
-29 -99 0
-30 -100 0
-26 -101 0
-27 -102 0
-28 -103 0
-29 -104 0
-30 -105 0
-26 -136 0
-27 -137 0
-28 -138 0
-29 -139 0
-30 -140 0
-26 -211 0
-27 -212 0
-28 -213 0
-29 -214 0
-30 -215 0
-26 -391 0
-27 -392 0
-28 -393 0
-29 -394 0
-30 -395 0
-26 -426 0
-27 -427 0
-28 -428 0
-29 -429 0
-30 -430 0
-26 -436 0
-27 -437 0
-28 -438 0
-29 -439 0
-30 -440 0
-26 -461 0
-27 -462 0
-28 -463 0
-29 -464 0
-30 -465 0
-31 -76 0
-32 -77 0
-33 -78 0
-34 -79 0
-35 -80 0
-31 -101 0
-32 -102 0
-33 -103 0
-34 -104 0
-35 -105 0
-31 -106 0
-32 -107 0
-33 -108 0
-34 -109 0
-35 -110 0
-31 -171 0
-32 -172 0
-33 -173 0
-34 -174 0
-35 -175 0
-31 -226 0
-32 -227 0
-33 -228 0
-34 -229 0
-35 -230 0
-31 -261 0
-32 -262 0
-33 -263 0
-34 -264 0
-35 -265 0
-31 -266 0
-32 -267 0
-33 -268 0
-34 -269 0
-35 -270 0
-31 -276 0
-32 -277 0
-33 -278 0
-34 -279 0
-35 -280 0
-31 -416 0
-32 -417 0
-33 -418 0
-34 -419 0
-35 -420 0
-31 -426 0
-32 -427 0
-33 -428 0
-34 -429 0
-35 -430 0
-31 -436 0
-32 -437 0
-33 -438 0
-34 -439 0
-35 -440 0
-31 -481 0
-32 -482 0
-33 -483 0
-34 -484 0
-35 -485 0
-31 -491 0
-32 -492 0
-33 -493 0
-34 -494 0
-35 -495 0
-36 -86 0
-37 -87 0
-38 -88 0
-39 -89 0
-40 -90 0
-36 -126 0
-37 -127 0
-38 -128 0
-39 -129 0
-40 -130 0
-36 -241 0
-37 -242 0
-38 -243 0
-39 -244 0
-40 -245 0
-36 -426 0
-37 -427 0
-38 -428 0
-39 -429 0
-40 -430 0
-41 -116 0
-42 -117 0
-43 -118 0
-44 -119 0
-45 -120 0
-41 -156 0
-42 -157 0
-43 -158 0
-44 -159 0
-45 -160 0
-41 -211 0
-42 -212 0
-43 -213 0
-44 -214 0
-45 -215 0
-41 -321 0
-42 -322 0
-43 -323 0
-44 -324 0
-45 -325 0
-41 -356 0
-42 -357 0
-43 -358 0
-44 -359 0
-45 -360 0
-41 -401 0
-42 -402 0
-43 -403 0
-44 -404 0
-45 -405 0
-46 -116 0
-47 -117 0
-48 -118 0
-49 -119 0
-50 -120 0
-46 -146 0
-47 -147 0
-48 -148 0
-49 -149 0
-50 -150 0
-46 -181 0
-47 -182 0
-48 -183 0
-49 -184 0
-50 -185 0
-46 -271 0
-47 -272 0
-48 -273 0
-49 -274 0
-50 -275 0
-46 -296 0
-47 -297 0
-48 -298 0
-49 -299 0
-50 -300 0
-46 -306 0
-47 -307 0
-48 -308 0
-49 -309 0
-50 -310 0
-46 -316 0
-47 -317 0
-48 -318 0
-49 -319 0
-50 -320 0
-46 -351 0
-47 -352 0
-48 -353 0
-49 -354 0
-50 -355 0
-46 -391 0
-47 -392 0
-48 -393 0
-49 -394 0
-50 -395 0
-46 -471 0
-47 -472 0
-48 -473 0
-49 -474 0
-50 -475 0
-46 -481 0
-47 -482 0
-48 -483 0
-49 -484 0
-50 -485 0
-51 -101 0
-52 -102 0
-53 -103 0
-54 -104 0
-55 -105 0
-51 -111 0
-52 -112 0
-53 -113 0
-54 -114 0
-55 -115 0
-51 -191 0
-52 -192 0
-53 -193 0
-54 -194 0
-55 -195 0
-51 -276 0
-52 -277 0
-53 -278 0
-54 -279 0
-55 -280 0
-51 -441 0
-52 -442 0
-53 -443 0
-54 -444 0
-55 -445 0
-56 -136 0
-57 -137 0
-58 -138 0
-59 -139 0
-60 -140 0
-56 -146 0
-57 -147 0
-58 -148 0
-59 -149 0
-60 -150 0
-56 -166 0
-57 -167 0
-58 -168 0
-59 -169 0
-60 -170 0
-56 -191 0
-57 -192 0
-58 -193 0
-59 -194 0
-60 -195 0
-56 -206 0
-57 -207 0
-58 -208 0
-59 -209 0
-60 -210 0
-56 -286 0
-57 -287 0
-58 -288 0
-59 -289 0
-60 -290 0
-56 -296 0
-57 -297 0
-58 -298 0
-59 -299 0
-60 -300 0
-56 -481 0
-57 -482 0
-58 -483 0
-59 -484 0
-60 -485 0
-61 -221 0
-62 -222 0
-63 -223 0
-64 -224 0
-65 -225 0
-61 -291 0
-62 -292 0
-63 -293 0
-64 -294 0
-65 -295 0
-61 -416 0
-62 -417 0
-63 -418 0
-64 -419 0
-65 -420 0
-61 -441 0
-62 -442 0
-63 -443 0
-64 -444 0
-65 -445 0
-61 -466 0
-62 -467 0
-63 -468 0
-64 -469 0
-65 -470 0
-66 -126 0
-67 -127 0
-68 -128 0
-69 -129 0
-70 -130 0
-66 -146 0
-67 -147 0
-68 -148 0
-69 -149 0
-70 -150 0
-66 -166 0
-67 -167 0
-68 -168 0
-69 -169 0
-70 -170 0
-66 -246 0
-67 -247 0
-68 -248 0
-69 -249 0
-70 -250 0
-66 -261 0
-67 -262 0
-68 -263 0
-69 -264 0
-70 -265 0
-66 -281 0
-67 -282 0
-68 -283 0
-69 -284 0
-70 -285 0
-66 -366 0
-67 -367 0
-68 -368 0
-69 -369 0
-70 -370 0
-66 -421 0
-67 -422 0
-68 -423 0
-69 -424 0
-70 -425 0
-66 -441 0
-67 -442 0
-68 -443 0
-69 -444 0
-70 -445 0
-66 -461 0
-67 -462 0
-68 -463 0
-69 -464 0
-70 -465 0
-66 -466 0
-67 -467 0
-68 -468 0
-69 -469 0
-70 -470 0
-71 -151 0
-72 -152 0
-73 -153 0
-74 -154 0
-75 -155 0
-71 -156 0
-72 -157 0
-73 -158 0
-74 -159 0
-75 -160 0
-71 -191 0
-72 -192 0
-73 -193 0
-74 -194 0
-75 -195 0
-71 -201 0
-72 -202 0
-73 -203 0
-74 -204 0
-75 -205 0
-71 -221 0
-72 -222 0
-73 -223 0
-74 -224 0
-75 -225 0
-71 -266 0
-72 -267 0
-73 -268 0
-74 -269 0
-75 -270 0
-71 -381 0
-72 -382 0
-73 -383 0
-74 -384 0
-75 -385 0
-71 -396 0
-72 -397 0
-73 -398 0
-74 -399 0
-75 -400 0
-71 -471 0
-72 -472 0
-73 -473 0
-74 -474 0
-75 -475 0
-76 -121 0
-77 -122 0
-78 -123 0
-79 -124 0
-80 -125 0
-76 -151 0
-77 -152 0
-78 -153 0
-79 -154 0
-80 -155 0
-76 -176 0
-77 -177 0
-78 -178 0
-79 -179 0
-80 -180 0
-76 -186 0
-77 -187 0
-78 -188 0
-79 -189 0
-80 -190 0
-76 -256 0
-77 -257 0
-78 -258 0
-79 -259 0
-80 -260 0
-76 -416 0
-77 -417 0
-78 -418 0
-79 -419 0
-80 -420 0
-76 -426 0
-77 -427 0
-78 -428 0
-79 -429 0
-80 -430 0
-76 -461 0
-77 -462 0
-78 -463 0
-79 -464 0
-80 -465 0
-76 -481 0
-77 -482 0
-78 -483 0
-79 -484 0
-80 -485 0
-76 -496 0
-77 -497 0
-78 -498 0
-79 -499 0
-80 -500 0
-81 -156 0
-82 -157 0
-83 -158 0
-84 -159 0
-85 -160 0
-81 -486 0
-82 -487 0
-83 -488 0
-84 -489 0
-85 -490 0
-86 -126 0
-87 -127 0
-88 -128 0
-89 -129 0
-90 -130 0
-86 -186 0
-87 -187 0
-88 -188 0
-89 -189 0
-90 -190 0
-86 -346 0
-87 -347 0
-88 -348 0
-89 -349 0
-90 -350 0
-86 -476 0
-87 -477 0
-88 -478 0
-89 -479 0
-90 -480 0
-86 -496 0
-87 -497 0
-88 -498 0
-89 -499 0
-90 -500 0
-91 -171 0
-92 -172 0
-93 -173 0
-94 -174 0
-95 -175 0
-91 -221 0
-92 -222 0
-93 -223 0
-94 -224 0
-95 -225 0
-91 -226 0
-92 -227 0
-93 -228 0
-94 -229 0
-95 -230 0
-91 -316 0
-92 -317 0
-93 -318 0
-94 -319 0
-95 -320 0
-91 -351 0
-92 -352 0
-93 -353 0
-94 -354 0
-95 -355 0
-91 -446 0
-92 -447 0
-93 -448 0
-94 -449 0
-95 -450 0
-96 -171 0
-97 -172 0
-98 -173 0
-99 -174 0
-100 -175 0
-96 -176 0
-97 -177 0
-98 -178 0
-99 -179 0
-100 -180 0
-96 -196 0
-97 -197 0
-98 -198 0
-99 -199 0
-100 -200 0
-96 -226 0
-97 -227 0
-98 -228 0
-99 -229 0
-100 -230 0
-96 -276 0
-97 -277 0
-98 -278 0
-99 -279 0
-100 -280 0
-96 -321 0
-97 -322 0
-98 -323 0
-99 -324 0
-100 -325 0
-96 -366 0
-97 -367 0
-98 -368 0
-99 -369 0
-100 -370 0
-96 -406 0
-97 -407 0
-98 -408 0
-99 -409 0
-100 -410 0
-96 -436 0
-97 -437 0
-98 -438 0
-99 -439 0
-100 -440 0
-96 -441 0
-97 -442 0
-98 -443 0
-99 -444 0
-100 -445 0
-101 -181 0
-102 -182 0
-103 -183 0
-104 -184 0
-105 -185 0
-101 -281 0
-102 -282 0
-103 -283 0
-104 -284 0
-105 -285 0
-101 -291 0
-102 -292 0
-103 -293 0
-104 -294 0
-105 -295 0
-101 -356 0
-102 -357 0
-103 -358 0
-104 -359 0
-105 -360 0
-101 -466 0
-102 -467 0
-103 -468 0
-104 -469 0
-105 -470 0
-106 -161 0
-107 -162 0
-108 -163 0
-109 -164 0
-110 -165 0
-106 -171 0
-107 -172 0
-108 -173 0
-109 -174 0
-110 -175 0
-106 -191 0
-107 -192 0
-108 -193 0
-109 -194 0
-110 -195 0
-106 -266 0
-107 -267 0
-108 -268 0
-109 -269 0
-110 -270 0
-106 -271 0
-107 -272 0
-108 -273 0
-109 -274 0
-110 -275 0
-106 -311 0
-107 -312 0
-108 -313 0
-109 -314 0
-110 -315 0
-106 -326 0
-107 -327 0
-108 -328 0
-109 -329 0
-110 -330 0
-106 -336 0
-107 -337 0
-108 -338 0
-109 -339 0
-110 -340 0
-106 -396 0
-107 -397 0
-108 -398 0
-109 -399 0
-110 -400 0
-106 -416 0
-107 -417 0
-108 -418 0
-109 -419 0
-110 -420 0
-111 -161 0
-112 -162 0
-113 -163 0
-114 -164 0
-115 -165 0
-111 -226 0
-112 -227 0
-113 -228 0
-114 -229 0
-115 -230 0
-116 -416 0
-117 -417 0
-118 -418 0
-119 -419 0
-120 -420 0
-121 -146 0
-122 -147 0
-123 -148 0
-124 -149 0
-125 -150 0
-121 -206 0
-122 -207 0
-123 -208 0
-124 -209 0
-125 -210 0
-121 -286 0
-122 -287 0
-123 -288 0
-124 -289 0
-125 -290 0
-121 -296 0
-122 -297 0
-123 -298 0
-124 -299 0
-125 -300 0
-121 -346 0
-122 -347 0
-123 -348 0
-124 -349 0
-125 -350 0
-121 -391 0
-122 -392 0
-123 -393 0
-124 -394 0
-125 -395 0
-121 -431 0
-122 -432 0
-123 -433 0
-124 -434 0
-125 -435 0
-121 -471 0
-122 -472 0
-123 -473 0
-124 -474 0
-125 -475 0
-121 -486 0
-122 -487 0
-123 -488 0
-124 -489 0
-125 -490 0
-126 -166 0
-127 -167 0
-128 -168 0
-129 -169 0
-130 -170 0
-126 -171 0
-127 -172 0
-128 -173 0
-129 -174 0
-130 -175 0
-126 -186 0
-127 -187 0
-128 -188 0
-129 -189 0
-130 -190 0
-126 -206 0
-127 -207 0
-128 -208 0
-129 -209 0
-130 -210 0
-126 -216 0
-127 -217 0
-128 -218 0
-129 -219 0
-130 -220 0
-126 -221 0
-127 -222 0
-128 -223 0
-129 -224 0
-130 -225 0
-126 -401 0
-127 -402 0
-128 -403 0
-129 -404 0
-130 -405 0
-131 -166 0
-132 -167 0
-133 -168 0
-134 -169 0
-135 -170 0
-131 -181 0
-132 -182 0
-133 -183 0
-134 -184 0
-135 -185 0
-131 -191 0
-132 -192 0
-133 -193 0
-134 -194 0
-135 -195 0
-131 -281 0
-132 -282 0
-133 -283 0
-134 -284 0
-135 -285 0
-131 -301 0
-132 -302 0
-133 -303 0
-134 -304 0
-135 -305 0
-131 -371 0
-132 -372 0
-133 -373 0
-134 -374 0
-135 -375 0
-131 -401 0
-132 -402 0
-133 -403 0
-134 -404 0
-135 -405 0
-131 -451 0
-132 -452 0
-133 -453 0
-134 -454 0
-135 -455 0
-131 -471 0
-132 -472 0
-133 -473 0
-134 -474 0
-135 -475 0
-131 -496 0
-132 -497 0
-133 -498 0
-134 -499 0
-135 -500 0
-136 -166 0
-137 -167 0
-138 -168 0
-139 -169 0
-140 -170 0
-136 -171 0
-137 -172 0
-138 -173 0
-139 -174 0
-140 -175 0
-136 -181 0
-137 -182 0
-138 -183 0
-139 -184 0
-140 -185 0
-136 -301 0
-137 -302 0
-138 -303 0
-139 -304 0
-140 -305 0
-141 -196 0
-142 -197 0
-143 -198 0
-144 -199 0
-145 -200 0
-141 -261 0
-142 -262 0
-143 -263 0
-144 -264 0
-145 -265 0
-141 -266 0
-142 -267 0
-143 -268 0
-144 -269 0
-145 -270 0
-141 -366 0
-142 -367 0
-143 -368 0
-144 -369 0
-145 -370 0
-141 -401 0
-142 -402 0
-143 -403 0
-144 -404 0
-145 -405 0
-146 -206 0
-147 -207 0
-148 -208 0
-149 -209 0
-150 -210 0
-146 -226 0
-147 -227 0
-148 -228 0
-149 -229 0
-150 -230 0
-146 -301 0
-147 -302 0
-148 -303 0
-149 -304 0
-150 -305 0
-146 -331 0
-147 -332 0
-148 -333 0
-149 -334 0
-150 -335 0
-146 -401 0
-147 -402 0
-148 -403 0
-149 -404 0
-150 -405 0
-146 -421 0
-147 -422 0
-148 -423 0
-149 -424 0
-150 -425 0
-146 -486 0
-147 -487 0
-148 -488 0
-149 -489 0
-150 -490 0
-151 -176 0
-152 -177 0
-153 -178 0
-154 -179 0
-155 -180 0
-151 -276 0
-152 -277 0
-153 -278 0
-154 -279 0
-155 -280 0
-151 -291 0
-152 -292 0
-153 -293 0
-154 -294 0
-155 -295 0
-151 -321 0
-152 -322 0
-153 -323 0
-154 -324 0
-155 -325 0
-151 -406 0
-152 -407 0
-153 -408 0
-154 -409 0
-155 -410 0
-151 -461 0
-152 -462 0
-153 -463 0
-154 -464 0
-155 -465 0
-151 -491 0
-152 -492 0
-153 -493 0
-154 -494 0
-155 -495 0
-156 -261 0
-157 -262 0
-158 -263 0
-159 -264 0
-160 -265 0
-156 -341 0
-157 -342 0
-158 -343 0
-159 -344 0
-160 -345 0
-156 -426 0
-157 -427 0
-158 -428 0
-159 -429 0
-160 -430 0
-156 -441 0
-157 -442 0
-158 -443 0
-159 -444 0
-160 -445 0
-161 -201 0
-162 -202 0
-163 -203 0
-164 -204 0
-165 -205 0
-161 -226 0
-162 -227 0
-163 -228 0
-164 -229 0
-165 -230 0
-161 -251 0
-162 -252 0
-163 -253 0
-164 -254 0
-165 -255 0
-161 -256 0
-162 -257 0
-163 -258 0
-164 -259 0
-165 -260 0
-161 -266 0
-162 -267 0
-163 -268 0
-164 -269 0
-165 -270 0
-161 -291 0
-162 -292 0
-163 -293 0
-164 -294 0
-165 -295 0
-161 -466 0
-162 -467 0
-163 -468 0
-164 -469 0
-165 -470 0
-166 -331 0
-167 -332 0
-168 -333 0
-169 -334 0
-170 -335 0
-166 -346 0
-167 -347 0
-168 -348 0
-169 -349 0
-170 -350 0
-166 -401 0
-167 -402 0
-168 -403 0
-169 -404 0
-170 -405 0
-171 -311 0
-172 -312 0
-173 -313 0
-174 -314 0
-175 -315 0
-171 -361 0
-172 -362 0
-173 -363 0
-174 -364 0
-175 -365 0
-176 -246 0
-177 -247 0
-178 -248 0
-179 -249 0
-180 -250 0
-176 -301 0
-177 -302 0
-178 -303 0
-179 -304 0
-180 -305 0
-176 -351 0
-177 -352 0
-178 -353 0
-179 -354 0
-180 -355 0
-176 -376 0
-177 -377 0
-178 -378 0
-179 -379 0
-180 -380 0
-176 -396 0
-177 -397 0
-178 -398 0
-179 -399 0
-180 -400 0
-181 -286 0
-182 -287 0
-183 -288 0
-184 -289 0
-185 -290 0
-181 -496 0
-182 -497 0
-183 -498 0
-184 -499 0
-185 -500 0
-186 -471 0
-187 -472 0
-188 -473 0
-189 -474 0
-190 -475 0
-186 -486 0
-187 -487 0
-188 -488 0
-189 -489 0
-190 -490 0
-191 -351 0
-192 -352 0
-193 -353 0
-194 -354 0
-195 -355 0
-191 -386 0
-192 -387 0
-193 -388 0
-194 -389 0
-195 -390 0
-191 -406 0
-192 -407 0
-193 -408 0
-194 -409 0
-195 -410 0
-191 -426 0
-192 -427 0
-193 -428 0
-194 -429 0
-195 -430 0
-196 -276 0
-197 -277 0
-198 -278 0
-199 -279 0
-200 -280 0
-196 -346 0
-197 -347 0
-198 -348 0
-199 -349 0
-200 -350 0
-196 -351 0
-197 -352 0
-198 -353 0
-199 -354 0
-200 -355 0
-196 -406 0
-197 -407 0
-198 -408 0
-199 -409 0
-200 -410 0
-201 -246 0
-202 -247 0
-203 -248 0
-204 -249 0
-205 -250 0
-201 -301 0
-202 -302 0
-203 -303 0
-204 -304 0
-205 -305 0
-201 -361 0
-202 -362 0
-203 -363 0
-204 -364 0
-205 -365 0
-201 -371 0
-202 -372 0
-203 -373 0
-204 -374 0
-205 -375 0
-206 -321 0
-207 -322 0
-208 -323 0
-209 -324 0
-210 -325 0
-206 -361 0
-207 -362 0
-208 -363 0
-209 -364 0
-210 -365 0
-206 -461 0
-207 -462 0
-208 -463 0
-209 -464 0
-210 -465 0
-206 -471 0
-207 -472 0
-208 -473 0
-209 -474 0
-210 -475 0
-206 -496 0
-207 -497 0
-208 -498 0
-209 -499 0
-210 -500 0
-211 -241 0
-212 -242 0
-213 -243 0
-214 -244 0
-215 -245 0
-211 -301 0
-212 -302 0
-213 -303 0
-214 -304 0
-215 -305 0
-216 -261 0
-217 -262 0
-218 -263 0
-219 -264 0
-220 -265 0
-216 -411 0
-217 -412 0
-218 -413 0
-219 -414 0
-220 -415 0
-221 -406 0
-222 -407 0
-223 -408 0
-224 -409 0
-225 -410 0
-221 -461 0
-222 -462 0
-223 -463 0
-224 -464 0
-225 -465 0
-226 -356 0
-227 -357 0
-228 -358 0
-229 -359 0
-230 -360 0
-226 -476 0
-227 -477 0
-228 -478 0
-229 -479 0
-230 -480 0
-236 -331 0
-237 -332 0
-238 -333 0
-239 -334 0
-240 -335 0
-236 -361 0
-237 -362 0
-238 -363 0
-239 -364 0
-240 -365 0
-236 -386 0
-237 -387 0
-238 -388 0
-239 -389 0
-240 -390 0
-236 -406 0
-237 -407 0
-238 -408 0
-239 -409 0
-240 -410 0
-236 -436 0
-237 -437 0
-238 -438 0
-239 -439 0
-240 -440 0
-236 -466 0
-237 -467 0
-238 -468 0
-239 -469 0
-240 -470 0
-241 -271 0
-242 -272 0
-243 -273 0
-244 -274 0
-245 -275 0
-241 -281 0
-242 -282 0
-243 -283 0
-244 -284 0
-245 -285 0
-241 -296 0
-242 -297 0
-243 -298 0
-244 -299 0
-245 -300 0
-241 -426 0
-242 -427 0
-243 -428 0
-244 -429 0
-245 -430 0
-241 -446 0
-242 -447 0
-243 -448 0
-244 -449 0
-245 -450 0
-246 -306 0
-247 -307 0
-248 -308 0
-249 -309 0
-250 -310 0
-251 -441 0
-252 -442 0
-253 -443 0
-254 -444 0
-255 -445 0
-251 -446 0
-252 -447 0
-253 -448 0
-254 -449 0
-255 -450 0
-251 -481 0
-252 -482 0
-253 -483 0
-254 -484 0
-255 -485 0
-251 -496 0
-252 -497 0
-253 -498 0
-254 -499 0
-255 -500 0
-256 -321 0
-257 -322 0
-258 -323 0
-259 -324 0
-260 -325 0
-256 -336 0
-257 -337 0
-258 -338 0
-259 -339 0
-260 -340 0
-256 -466 0
-257 -467 0
-258 -468 0
-259 -469 0
-260 -470 0
-256 -481 0
-257 -482 0
-258 -483 0
-259 -484 0
-260 -485 0
-261 -371 0
-262 -372 0
-263 -373 0
-264 -374 0
-265 -375 0
-261 -401 0
-262 -402 0
-263 -403 0
-264 -404 0
-265 -405 0
-261 -466 0
-262 -467 0
-263 -468 0
-264 -469 0
-265 -470 0
-261 -491 0
-262 -492 0
-263 -493 0
-264 -494 0
-265 -495 0
-266 -311 0
-267 -312 0
-268 -313 0
-269 -314 0
-270 -315 0
-266 -321 0
-267 -322 0
-268 -323 0
-269 -324 0
-270 -325 0
-266 -326 0
-267 -327 0
-268 -328 0
-269 -329 0
-270 -330 0
-266 -466 0
-267 -467 0
-268 -468 0
-269 -469 0
-270 -470 0
-266 -491 0
-267 -492 0
-268 -493 0
-269 -494 0
-270 -495 0
-271 -306 0
-272 -307 0
-273 -308 0
-274 -309 0
-275 -310 0
-271 -401 0
-272 -402 0
-273 -403 0
-274 -404 0
-275 -405 0
-276 -331 0
-277 -332 0
-278 -333 0
-279 -334 0
-280 -335 0
-276 -391 0
-277 -392 0
-278 -393 0
-279 -394 0
-280 -395 0
-276 -436 0
-277 -437 0
-278 -438 0
-279 -439 0
-280 -440 0
-281 -311 0
-282 -312 0
-283 -313 0
-284 -314 0
-285 -315 0
-281 -326 0
-282 -327 0
-283 -328 0
-284 -329 0
-285 -330 0
-281 -331 0
-282 -332 0
-283 -333 0
-284 -334 0
-285 -335 0
-281 -416 0
-282 -417 0
-283 -418 0
-284 -419 0
-285 -420 0
-281 -461 0
-282 -462 0
-283 -463 0
-284 -464 0
-285 -465 0
-281 -481 0
-282 -482 0
-283 -483 0
-284 -484 0
-285 -485 0
-286 -316 0
-287 -317 0
-288 -318 0
-289 -319 0
-290 -320 0
-286 -341 0
-287 -342 0
-288 -343 0
-289 -344 0
-290 -345 0
-286 -396 0
-287 -397 0
-288 -398 0
-289 -399 0
-290 -400 0
-286 -446 0
-287 -447 0
-288 -448 0
-289 -449 0
-290 -450 0
-291 -356 0
-292 -357 0
-293 -358 0
-294 -359 0
-295 -360 0
-291 -366 0
-292 -367 0
-293 -368 0
-294 -369 0
-295 -370 0
-291 -371 0
-292 -372 0
-293 -373 0
-294 -374 0
-295 -375 0
-291 -431 0
-292 -432 0
-293 -433 0
-294 -434 0
-295 -435 0
-291 -496 0
-292 -497 0
-293 -498 0
-294 -499 0
-295 -500 0
-296 -371 0
-297 -372 0
-298 -373 0
-299 -374 0
-300 -375 0
-296 -391 0
-297 -392 0
-298 -393 0
-299 -394 0
-300 -395 0
-296 -406 0
-297 -407 0
-298 -408 0
-299 -409 0
-300 -410 0
-296 -416 0
-297 -417 0
-298 -418 0
-299 -419 0
-300 -420 0
-296 -426 0
-297 -427 0
-298 -428 0
-299 -429 0
-300 -430 0
-306 -416 0
-307 -417 0
-308 -418 0
-309 -419 0
-310 -420 0
-306 -426 0
-307 -427 0
-308 -428 0
-309 -429 0
-310 -430 0
-306 -451 0
-307 -452 0
-308 -453 0
-309 -454 0
-310 -455 0
-311 -421 0
-312 -422 0
-313 -423 0
-314 -424 0
-315 -425 0
-316 -346 0
-317 -347 0
-318 -348 0
-319 -349 0
-320 -350 0
-316 -436 0
-317 -437 0
-318 -438 0
-319 -439 0
-320 -440 0
-321 -371 0
-322 -372 0
-323 -373 0
-324 -374 0
-325 -375 0
-321 -391 0
-322 -392 0
-323 -393 0
-324 -394 0
-325 -395 0
-321 -451 0
-322 -452 0
-323 -453 0
-324 -454 0
-325 -455 0
-326 -431 0
-327 -432 0
-328 -433 0
-329 -434 0
-330 -435 0
-331 -356 0
-332 -357 0
-333 -358 0
-334 -359 0
-335 -360 0
-331 -371 0
-332 -372 0
-333 -373 0
-334 -374 0
-335 -375 0
-331 -386 0
-332 -387 0
-333 -388 0
-334 -389 0
-335 -390 0
-331 -456 0
-332 -457 0
-333 -458 0
-334 -459 0
-335 -460 0
-336 -451 0
-337 -452 0
-338 -453 0
-339 -454 0
-340 -455 0
-341 -386 0
-342 -387 0
-343 -388 0
-344 -389 0
-345 -390 0
-341 -401 0
-342 -402 0
-343 -403 0
-344 -404 0
-345 -405 0
-341 -451 0
-342 -452 0
-343 -453 0
-344 -454 0
-345 -455 0
-346 -436 0
-347 -437 0
-348 -438 0
-349 -439 0
-350 -440 0
-346 -446 0
-347 -447 0
-348 -448 0
-349 -449 0
-350 -450 0
-346 -471 0
-347 -472 0
-348 -473 0
-349 -474 0
-350 -475 0
-351 -466 0
-352 -467 0
-353 -468 0
-354 -469 0
-355 -470 0
-351 -471 0
-352 -472 0
-353 -473 0
-354 -474 0
-355 -475 0
-356 -421 0
-357 -422 0
-358 -423 0
-359 -424 0
-360 -425 0
-356 -431 0
-357 -432 0
-358 -433 0
-359 -434 0
-360 -435 0
-356 -461 0
-357 -462 0
-358 -463 0
-359 -464 0
-360 -465 0
-361 -416 0
-362 -417 0
-363 -418 0
-364 -419 0
-365 -420 0
-361 -491 0
-362 -492 0
-363 -493 0
-364 -494 0
-365 -495 0
-366 -406 0
-367 -407 0
-368 -408 0
-369 -409 0
-370 -410 0
-371 -426 0
-372 -427 0
-373 -428 0
-374 -429 0
-375 -430 0
-371 -451 0
-372 -452 0
-373 -453 0
-374 -454 0
-375 -455 0
-376 -401 0
-377 -402 0
-378 -403 0
-379 -404 0
-380 -405 0
-376 -436 0
-377 -437 0
-378 -438 0
-379 -439 0
-380 -440 0
-381 -411 0
-382 -412 0
-383 -413 0
-384 -414 0
-385 -415 0
-381 -456 0
-382 -457 0
-383 -458 0
-384 -459 0
-385 -460 0
-381 -471 0
-382 -472 0
-383 -473 0
-384 -474 0
-385 -475 0
-386 -476 0
-387 -477 0
-388 -478 0
-389 -479 0
-390 -480 0
-391 -426 0
-392 -427 0
-393 -428 0
-394 -429 0
-395 -430 0
-401 -451 0
-402 -452 0
-403 -453 0
-404 -454 0
-405 -455 0
-406 -461 0
-407 -462 0
-408 -463 0
-409 -464 0
-410 -465 0
-406 -471 0
-407 -472 0
-408 -473 0
-409 -474 0
-410 -475 0
-416 -471 0
-417 -472 0
-418 -473 0
-419 -474 0
-420 -475 0
-421 -496 0
-422 -497 0
-423 -498 0
-424 -499 0
-425 -500 0
-426 -476 0
-427 -477 0
-428 -478 0
-429 -479 0
-430 -480 0
-426 -481 0
-427 -482 0
-428 -483 0
-429 -484 0
-430 -485 0
-426 -491 0
-427 -492 0
-428 -493 0
-429 -494 0
-430 -495 0
-436 -491 0
-437 -492 0
-438 -493 0
-439 -494 0
-440 -495 0
